1000 1039
8 8
1 69 192 47 292 28 166 205 
146 96 177 62 37 145 3 334 
99 182 133 113 9 239 27 198 
159 182 132 158 183 38 142 6 
92 63 114 144 180 199 136 72 
119 31 9 163 139 158 350 31 
46 30 59 290 156 90 175 154 
338 347 184 23 4 103 1 0 
